nN = 5;
nR = 20;
nH = 1;

a = [[21, 23, 20, 11, 11, 17, 14, 15, 16, 22, 18, 17, 10, 12, 14, 11, 18, 13, 11, 25], [23, 17, 16, 18, 13, 21, 14, 13, 20, 14, 25, 10, 17, 14, 20, 20, 21, 22, 22, 20], [22, 20, 12, 22, 13, 13, 16, 22, 22, 10, 18, 13, 13, 11, 19, 13, 20, 10, 16, 19], [11, 10, 23, 19, 18, 21, 17, 11, 10, 21, 19, 22, 18, 22, 17, 21, 15, 10, 24, 24], [18, 22, 23, 19, 15, 12, 14, 13, 12, 22, 21, 15, 12, 11, 21, 20, 22, 13, 11, 21]];
c = [[[0, 0, 0, 0, 0, 0, 0, 0, 0, 0, 0, 0, 0, 0, 0, 0, 0, 0, 0, 0], [34, 44, 30, 36, 44, 37, 44, 46, 32, 36, 37, 30, 41, 49, 32, 37, 36, 34, 36, 37], [39, 32, 50, 32, 50, 46, 33, 50, 30, 48, 44, 42, 43, 35, 41, 47, 39, 39, 43, 37], [50, 40, 32, 34, 35, 35, 37, 49, 47, 50, 43, 38, 48, 39, 30, 32, 43, 36, 38, 46], [35, 38, 45, 45, 34, 38, 30, 35, 39, 31, 44, 33, 38, 49, 49, 44, 42, 45, 44, 40]], [[0, 0, 0, 0, 0, 0, 0, 0, 0, 0, 0, 0, 0, 0, 0, 0, 0, 0, 0, 0], [0, 0, 0, 0, 0, 0, 0, 0, 0, 0, 0, 0, 0, 0, 0, 0, 0, 0, 0, 0], [41, 35, 30, 42, 32, 40, 43, 39, 41, 39, 31, 46, 48, 41, 35, 50, 41, 31, 30, 30], [31, 34, 39, 38, 31, 31, 36, 42, 36, 37, 36, 38, 41, 50, 47, 30, 34, 41, 50, 48], [43, 35, 33, 44, 38, 49, 39, 38, 46, 32, 38, 33, 47, 45, 47, 49, 30, 42, 31, 44]], [[0, 0, 0, 0, 0, 0, 0, 0, 0, 0, 0, 0, 0, 0, 0, 0, 0, 0, 0, 0], [0, 0, 0, 0, 0, 0, 0, 0, 0, 0, 0, 0, 0, 0, 0, 0, 0, 0, 0, 0], [0, 0, 0, 0, 0, 0, 0, 0, 0, 0, 0, 0, 0, 0, 0, 0, 0, 0, 0, 0], [32, 48, 34, 44, 32, 35, 41, 37, 50, 48, 40, 41, 36, 39, 30, 31, 36, 40, 46, 37], [44, 30, 34, 48, 40, 45, 36, 47, 45, 40, 34, 34, 32, 42, 49, 50, 33, 36, 40, 31]], [[0, 0, 0, 0, 0, 0, 0, 0, 0, 0, 0, 0, 0, 0, 0, 0, 0, 0, 0, 0], [0, 0, 0, 0, 0, 0, 0, 0, 0, 0, 0, 0, 0, 0, 0, 0, 0, 0, 0, 0], [0, 0, 0, 0, 0, 0, 0, 0, 0, 0, 0, 0, 0, 0, 0, 0, 0, 0, 0, 0], [0, 0, 0, 0, 0, 0, 0, 0, 0, 0, 0, 0, 0, 0, 0, 0, 0, 0, 0, 0], [46, 47, 42, 44, 35, 43, 37, 36, 33, 37, 46, 35, 37, 49, 37, 35, 40, 34, 49, 36]], [[0, 0, 0, 0, 0, 0, 0, 0, 0, 0, 0, 0, 0, 0, 0, 0, 0, 0, 0, 0], [0, 0, 0, 0, 0, 0, 0, 0, 0, 0, 0, 0, 0, 0, 0, 0, 0, 0, 0, 0], [0, 0, 0, 0, 0, 0, 0, 0, 0, 0, 0, 0, 0, 0, 0, 0, 0, 0, 0, 0], [0, 0, 0, 0, 0, 0, 0, 0, 0, 0, 0, 0, 0, 0, 0, 0, 0, 0, 0, 0], [0, 0, 0, 0, 0, 0, 0, 0, 0, 0, 0, 0, 0, 0, 0, 0, 0, 0, 0, 0]]];

q = [[[14], [12], [6], [18], [9], [12], [19], [7], [22], [19], [7], [6], [25], [10], [13], [7], [24], [17], [12], [6]], [[15], [19], [25], [17], [16], [7], [8], [21], [21], [5], [8], [13], [16], [24], [15], [14], [8], [7], [18], [18]], [[17], [15], [23], [14], [24], [10], [15], [17], [8], [23], [16], [23], [25], [13], [24], [17], [6], [14], [7], [21]], [[24], [23], [19], [15], [15], [13], [6], [12], [21], [21], [16], [5], [8], [11], [9], [9], [23], [11], [8], [11]], [[25], [11], [15], [11], [9], [18], [10], [23], [9], [7], [19], [14], [7], [6], [22], [17], [7], [7], [5], [13]]];
Q = [[43], [47], [54], [45], [42]];
